n = 35;
m = 61;
w = [3,2,3,6,9,4,4,3,4,8,10,1,5,8,2,6,3,4,5,5,5,6,8,2,6,8,6,6,8,1,6,10,1,6,9,8,7,7,7,7,5,1,8,2,3,3,8,8,1,3,6,8,7,4,8,4,2,7,1,7,9];
edges = array2d(1..m, 1..2, [1,8,1,14,1,17,1,20,2,4,2,26,2,32,3,8,3,11,3,18,3,32,3,34,4,6,4,12,4,15,4,34,4,35,6,11,6,30,6,31,7,20,7,30,7,32,8,10,8,21,8,34,9,22,9,28,10,13,10,18,10,32,11,16,11,27,12,22,12,23,12,27,13,21,13,27,13,33,14,24,14,31,15,18,15,21,15,28,16,18,16,31,17,21,17,29,17,30,18,32,19,28,19,31,20,23,20,33,22,32,23,30,24,27,25,29,25,33,26,28,27,33]);
